Route #1: 1 32 9 16 29 28 20 25 1
Route #2: 1 5 18 13 4 7 26 10 39 1
Route #3: 1 3 42 15 14 44 30 23 1
Route #4: 1 8 6 22 33 38 43 11 12 27 1
Route #5: 1 35 40 24 31 19 2 36 1
Route #6: 1 37 41 21 17 34 1
cost 1065.3223834177397
